myproject/instances/20nodes/rnd26_20.tsp
NAME : rnd26_20.tsp
TYPE : TSP
DIMENSION : 20
EDGE_WEIGHT_TYPE : EUC_2D
NODE_COORD_SECTION
1 318 763
2 476 456
3 840 24
4 327 922
5 407 406
6 249 686
7 147 854
8 925 700
9 569 839
10 424 936
11 879 451
12 101 121
13 601 806
14 855 712
15 331 273
16 295 651
17 944 682
18 356 440
19 532 464
20 566 207
