myproject/instances/20nodes/rnd26_20.opt.tour
NAME : rnd26_20.tsp.tsp.opt.tour
TYPE : TOUR
DIMENSION : 20
TOUR_SECTION
1
6
16
19
2
5
18
15
12
20
3
11
17
8
14
13
9
10
4
7
-1